c Generated map
c Size: 10 * 10, weights in range: 1 to 10, walls: True, with ratio 0.1
c dim 4 of 6
c
p sp 100 145
c graph contains 100 nodes and 145 arcs
c
a 1 2 6
a 2 1 6
a 2 12 5
a 12 2 5
a 2 3 9
a 3 2 9
a 3 13 1
a 13 3 1
a 3 4 9
a 4 3 9
a 4 14 8
a 14 4 8
a 6 7 4
a 7 6 4
a 7 17 4
a 17 7 4
a 10 20 9
a 20 10 9
a 12 22 7
a 22 12 7
a 12 13 10
a 13 12 10
a 13 23 7
a 23 13 7
a 13 14 7
a 14 13 7
a 14 24 4
a 24 14 4
a 14 15 4
a 15 14 4
a 15 25 9
a 25 15 9
a 17 27 4
a 27 17 4
a 17 18 1
a 18 17 1
a 18 19 9
a 19 18 9
a 19 29 1
a 29 19 1
a 19 20 5
a 20 19 5
a 20 30 9
a 30 20 9
a 21 31 1
a 31 21 1
a 21 22 7
a 22 21 7
a 22 32 9
a 32 22 9
a 22 23 9
a 23 22 9
a 23 33 7
a 33 23 7
a 23 24 7
a 24 23 7
a 24 34 4
a 34 24 4
a 24 25 4
a 25 24 4
a 25 35 1
a 35 25 1
a 25 26 1
a 26 25 1
a 26 36 5
a 36 26 5
a 26 27 5
a 27 26 5
a 27 37 10
a 37 27 10
a 29 39 2
a 39 29 2
a 29 30 9
a 30 29 9
a 30 40 5
a 40 30 5
a 31 41 5
a 41 31 5
a 31 32 7
a 32 31 7
a 32 42 7
a 42 32 7
a 32 33 4
a 33 32 4
a 33 43 2
a 43 33 2
a 33 34 9
a 34 33 9
a 34 44 7
a 44 34 7
a 34 35 1
a 35 34 1
a 35 45 6
a 45 35 6
a 35 36 3
a 36 35 3
a 36 37 3
a 37 36 3
a 37 47 9
a 47 37 9
a 37 38 5
a 38 37 5
a 38 39 4
a 39 38 4
a 39 49 1
a 49 39 1
a 39 40 10
a 40 39 10
a 40 50 2
a 50 40 2
a 41 51 1
a 51 41 1
a 41 42 10
a 42 41 10
a 42 52 9
a 52 42 9
a 42 43 5
a 43 42 5
a 43 53 9
a 53 43 9
a 43 44 6
a 44 43 6
a 44 54 10
a 54 44 10
a 44 45 8
a 45 44 8
a 45 55 10
a 55 45 10
a 47 57 10
a 57 47 10
a 49 59 10
a 59 49 10
a 49 50 10
a 50 49 10
a 50 60 8
a 60 50 8
a 51 61 10
a 61 51 10
a 51 52 9
a 52 51 9
a 52 62 10
a 62 52 10
a 52 53 2
a 53 52 2
a 53 63 4
a 63 53 4
a 53 54 9
a 54 53 9
a 54 64 5
a 64 54 5
a 54 55 5
a 55 54 5
a 55 65 2
a 65 55 2
a 55 56 1
a 56 55 1
a 56 66 5
a 66 56 5
a 56 57 4
a 57 56 4
a 57 67 6
a 67 57 6
a 57 58 8
a 58 57 8
a 58 68 7
a 68 58 7
a 58 59 9
a 59 58 9
a 59 69 7
a 69 59 7
a 59 60 7
a 60 59 7
a 60 70 6
a 70 60 6
a 61 71 6
a 71 61 6
a 61 62 4
a 62 61 4
a 62 72 4
a 72 62 4
a 62 63 7
a 63 62 7
a 63 73 10
a 73 63 10
a 63 64 6
a 64 63 6
a 64 74 1
a 74 64 1
a 64 65 1
a 65 64 1
a 65 75 6
a 75 65 6
a 65 66 2
a 66 65 2
a 66 76 7
a 76 66 7
a 66 67 1
a 67 66 1
a 67 77 9
a 77 67 9
a 67 68 5
a 68 67 5
a 68 69 10
a 69 68 10
a 69 79 8
a 79 69 8
a 69 70 1
a 70 69 1
a 70 80 9
a 80 70 9
a 71 81 9
a 81 71 9
a 71 72 6
a 72 71 6
a 72 82 7
a 82 72 7
a 72 73 5
a 73 72 5
a 73 83 2
a 83 73 2
a 73 74 3
a 74 73 3
a 74 84 9
a 84 74 9
a 74 75 1
a 75 74 1
a 75 85 5
a 85 75 5
a 75 76 6
a 76 75 6
a 76 86 7
a 86 76 7
a 76 77 5
a 77 76 5
a 79 89 5
a 89 79 5
a 79 80 5
a 80 79 5
a 80 90 5
a 90 80 5
a 81 91 10
a 91 81 10
a 81 82 8
a 82 81 8
a 82 92 9
a 92 82 9
a 82 83 6
a 83 82 6
a 83 93 7
a 93 83 7
a 83 84 9
a 84 83 9
a 84 94 2
a 94 84 2
a 84 85 4
a 85 84 4
a 85 95 9
a 95 85 9
a 85 86 4
a 86 85 4
a 86 96 8
a 96 86 8
a 88 98 7
a 98 88 7
a 88 89 8
a 89 88 8
a 89 99 8
a 99 89 8
a 89 90 3
a 90 89 3
a 90 100 10
a 100 90 10
a 91 92 3
a 92 91 3
a 92 93 5
a 93 92 5
a 93 94 8
a 94 93 8
a 94 95 10
a 95 94 10
a 95 96 10
a 96 95 10
a 96 97 8
a 97 96 8
a 97 98 1
a 98 97 1
a 98 99 6
a 99 98 6
a 99 100 1
a 100 99 1
